This is Ipopt version 3.10.1, running with linear solver mumps.

Number of nonzeros in equality constraint Jacobian...:      236
Number of nonzeros in inequality constraint Jacobian.:        0
Number of nonzeros in Lagrangian Hessian.............:     5892

Total number of variables............................:      120
                     variables with only lower bounds:        0
                variables with lower and upper bounds:      120
                     variables with only upper bounds:        0
Total number of equality constraints.................:       59
Total number of inequality constraints...............:        0
        inequality constraints with only lower bounds:        0
   inequality constraints with lower and upper bounds:        0
        inequality constraints with only upper bounds:        0

iter    objective    inf_pr   inf_du lg(mu)  ||d||  lg(rg) alpha_du alpha_pr  ls
   0 -2.6303658e-03 1.00e-02 1.39e-03  -1.0 0.00e+00    -  0.00e+00 0.00e+00   0
   1 -2.7992029e-03 4.29e-10 3.38e-03  -1.7 2.61e-02    -  9.75e-01 1.00e+00h  1
   2 -2.9010470e-03 2.57e-10 2.11e-05  -2.5 3.71e-02    -  1.00e+00 1.00e+00f  1
   3 -3.5960013e-03 1.04e-11 1.07e-03  -3.8 4.40e-02    -  9.01e-01 1.00e+00f  1
   4 -1.1574719e-02 2.99e-12 7.36e-03  -5.7 1.75e-01  -2.0 6.18e-01 7.62e-01f  1
   5 -1.2844236e-02 2.82e-12 6.74e-03  -5.7 2.30e-02  -0.7 9.82e-01 4.76e-01f  1
   6 -1.6842961e-02 3.99e-12 1.23e-02  -5.7 1.61e-01  -1.1 1.00e+00 1.60e-01f  1
   7 -2.0335022e-02 4.23e-12 8.38e-03  -5.7 4.01e-02  -0.7 1.00e+00 4.88e-01f  1
   8 -2.3179208e-02 2.72e-12 8.16e-03  -5.7 1.54e-02  -0.3 1.00e+00 9.02e-01f  1
   9 -2.6977714e-02 3.79e-12 1.27e-02  -5.7 8.78e-02  -0.8 1.00e+00 1.99e-01f  1
iter    objective    inf_pr   inf_du lg(mu)  ||d||  lg(rg) alpha_du alpha_pr  ls
  10 -2.8441609e-02 3.47e-12 1.04e-02  -5.7 2.69e-02  -0.3 1.00e+00 2.62e-01f  1
  11 -3.2761635e-02 4.61e-12 2.46e-02  -5.7 1.66e-01  -0.8 1.00e+00 1.28e-01f  1
  12 -3.8510225e-02 4.32e-12 1.60e-02  -5.7 4.33e-02  -0.4 1.00e+00 5.72e-01f  1
  13 -3.9760242e-02 4.78e-12 1.16e-01  -5.7 5.00e-01  -0.9 1.00e+00 9.68e-03f  1
  14 -4.8349737e-02 4.74e-12 1.77e-02  -5.7 5.15e-02  -0.4 1.00e+00 5.68e-01f  1
  15 -5.1492439e-02 5.72e-12 7.87e-02  -5.7 1.31e+00  -0.9 2.44e-01 7.93e-03f  1
  16 -5.8100829e-02 7.13e-12 2.03e-02  -5.7 6.54e-02  -0.5 1.00e+00 3.47e-01f  1
  17 -6.6917653e-02 1.07e-11 7.38e-02  -5.7 7.28e-01  -1.0 4.20e-01 4.34e-02f  1
  18 -7.7102018e-02 1.32e-11 2.56e-02  -5.7 9.24e-02  -0.6 1.00e+00 3.54e-01f  1
  19 -8.0952970e-02 1.16e-11 2.34e-02  -5.7 3.31e-02  -0.1 1.00e+00 3.49e-01f  1
iter    objective    inf_pr   inf_du lg(mu)  ||d||  lg(rg) alpha_du alpha_pr  ls
  20 -8.5294565e-02 1.28e-11 4.69e-02  -5.7 1.47e-01  -0.6 1.00e+00 8.48e-02f  1
  21 -9.6128305e-02 9.55e-12 2.66e-02  -5.7 4.37e-02  -0.2 1.00e+00 7.37e-01f  1
  22 -9.8509614e-02 1.05e-11 1.11e-01  -5.7 1.85e-01  -0.7 1.00e+00 3.42e-02f  1
  23 -1.0155103e-01 1.14e-11 4.93e-02  -5.7 4.31e-02  -0.2 1.00e+00 2.32e-01f  1
  24 -1.0479054e-01 1.26e-11 8.45e-02  -5.7 1.65e-01  -0.7 1.00e+00 8.10e-02f  1
  25 -1.0929173e-01 1.32e-11 2.97e-02  -5.7 4.30e-02  -0.3 1.00e+00 4.01e-01f  1
  26 -1.1501804e-01 1.45e-11 5.99e-02  -5.7 2.11e-01  -0.8 1.00e+00 1.36e-01f  1
  27 -1.2083488e-01 1.27e-11 2.69e-02  -5.7 5.16e-02  -0.3 1.00e+00 4.53e-01f  1
  28 -1.2321446e-01 1.36e-11 5.67e-02  -5.7 4.65e-01  -0.8 4.26e-01 2.38e-02f  1
  29 -1.2730553e-01 1.25e-11 3.68e-02  -5.7 5.31e-02  -0.4 1.00e+00 2.67e-01f  1
iter    objective    inf_pr   inf_du lg(mu)  ||d||  lg(rg) alpha_du alpha_pr  ls
  30 -1.3047064e-01 1.32e-11 5.97e-02  -5.7 3.02e-01  -0.9 4.03e-01 4.36e-02f  1
  31 -1.4304984e-01 8.88e-12 2.38e-02  -5.7 6.27e-02  -0.4 1.00e+00 7.60e-01f  1
  32 -1.4552325e-01 6.88e-12 2.32e-02  -5.7 2.58e-02  -0.0 1.00e+00 3.57e-01f  1
  33 -1.4985227e-01 6.98e-12 3.80e-02  -5.7 9.48e-02  -0.5 1.00e+00 1.53e-01f  1
  34 -1.5697934e-01 6.69e-12 2.73e-02  -5.7 3.11e-02  -0.1 1.00e+00 8.89e-01f  1
  35 -1.7246446e-01 1.03e-11 4.44e-02  -5.7 1.11e-01  -0.5 9.35e-01 5.49e-01f  1
  36 -1.7364446e-01 9.52e-12 3.08e-02  -5.7 4.19e-02  -0.1 1.00e+00 9.71e-02f  1
  37 -1.9063840e-01 1.11e-11 3.10e-02  -5.7 1.50e-01  -0.6 6.27e-01 4.56e-01f  1
  38 -2.0185538e-01 1.15e-11 4.24e-02  -5.7 5.15e-02  -0.2 2.15e-01 7.24e-01f  1
  39 -2.1218273e-01 1.46e-11 4.13e-02  -5.7 5.77e-01  -0.6 1.48e-01 5.62e-02f  1
iter    objective    inf_pr   inf_du lg(mu)  ||d||  lg(rg) alpha_du alpha_pr  ls
  40 -2.1281185e-01 1.42e-11 1.56e-01  -5.7 5.60e-02  -0.2 1.00e+00 4.41e-02f  1
  41 -2.1541544e-01 1.40e-11 1.43e-01  -5.7 1.60e-01  -0.7 2.64e-01 6.90e-02f  1
  42 -2.1605137e-01 1.27e-11 7.72e-02  -5.7 3.37e-02  -0.3 1.00e+00 7.31e-02f  1
  43 -2.2069709e-01 1.03e-11 7.00e-02  -5.7 8.21e-02  -0.7 1.00e+00 2.93e-01f  1
  44 -2.2115635e-01 1.01e-11 4.44e-02  -5.7 3.18e-02  -0.3 1.00e+00 1.13e-01f  1
  45 -2.2940252e-01 1.04e-11 2.97e-02  -5.7 9.65e-02  -0.8 1.00e+00 5.83e-01f  1
  46 -2.3232529e-01 1.39e-11 1.77e-02  -5.7 4.34e-02  -0.4 5.40e-01 6.24e-01f  1
  47 -2.3282387e-01 1.41e-11 5.58e-02  -5.7 1.25e-01  -0.8 1.00e+00 3.15e-02f  1
  48 -2.3364271e-01 1.07e-11 3.87e-02  -5.7 2.37e-02  -0.4 1.00e+00 3.45e-01f  1
  49 -2.4100885e-01 1.27e-11 2.91e-02  -5.7 1.38e-01  -0.9 1.00e+00 4.60e-01f  1
iter    objective    inf_pr   inf_du lg(mu)  ||d||  lg(rg) alpha_du alpha_pr  ls
  50 -2.5422659e-01 3.08e-11 5.89e-02  -5.7 9.55e-01  -1.4 2.38e-01 1.22e-01f  1
  51 -2.5421538e-01 3.07e-11 1.23e-01  -5.7 3.25e-02  -0.9 1.00e+00 4.35e-03f  7
  52 -2.5796657e-01 1.82e-11 1.98e-02  -5.7 7.89e-02  -1.4 1.00e+00 8.08e-01f  1
  53 -2.6019585e-01 2.03e-11 3.27e-03  -5.7 3.07e-02  -1.0 1.00e+00 1.00e+00f  1
  54 -3.4009813e-01 3.07e-11 1.74e-01  -5.7 3.89e-01  -1.5 6.95e-01 9.79e-01f  1
  55 -3.5360349e-01 3.75e-11 1.34e-01  -5.7 7.97e+00  -1.0 1.20e-02 4.18e-03f  1
  56 -3.8247844e-01 3.92e-11 9.80e-02  -5.7 1.29e-01  -0.6 3.36e-01 5.00e-01f  1
  57 -4.2427911e-01 3.10e-11 1.09e-01  -5.7 5.16e-02  -0.2 1.49e-01 1.00e+00f  1
  58 -4.2646949e-01 2.70e-11 3.44e-02  -5.7 2.28e-02   0.2 7.28e-01 1.07e-01f  1
  59 -4.3146875e-01 2.53e-11 5.99e-02  -5.7 7.15e-02  -0.2 1.38e-01 1.91e-01f  1
iter    objective    inf_pr   inf_du lg(mu)  ||d||  lg(rg) alpha_du alpha_pr  ls
  60 -4.3758802e-01 3.29e-11 8.70e-02  -5.7 4.60e-01  -0.7 1.90e-01 3.83e-02f  1
  61 -4.4377769e-01 3.68e-11 1.60e-01  -5.7 9.53e-02  -0.3 6.80e-01 1.65e-01f  1
  62 -4.6236790e-01 3.90e-11 2.01e-01  -5.7 2.68e-01  -0.8 9.17e-01 1.60e-01f  1
  63 -4.9610724e-01 3.08e-11 1.70e-01  -5.7 8.21e-02  -0.3 4.66e-02 8.13e-01f  1
  64 -5.1193223e-01 2.82e-11 1.60e-01  -5.7 9.80e-01  -0.8 2.83e-02 3.32e-02f  1
  65 -5.1211696e-01 2.59e-11 1.60e-01  -5.7 2.03e-01  -0.4 2.38e-04 2.62e-03f  1
  66 -5.3498059e-01 3.00e-11 4.59e-01  -5.7 7.10e+00  -0.9 5.54e-02 7.23e-03f  1
  67 -5.3517895e-01 1.26e-10 4.64e-01  -5.7 2.18e-01  -0.5 3.16e-04 1.39e-03f  1
  68 -5.7633169e-01 3.18e-10 6.59e-01  -5.7 5.67e-02  -0.0 1.55e-01 9.97e-01f  1
  69 -6.2238469e-01 2.64e-10 8.06e-01  -5.7 4.61e-01  -0.5 1.00e+00 1.23e-01f  1
iter    objective    inf_pr   inf_du lg(mu)  ||d||  lg(rg) alpha_du alpha_pr  ls
  70 -6.7580652e-01 3.95e-11 1.31e-01  -5.7 9.65e-02  -0.1 1.00e+00 7.35e-01f  1
  71 -7.2027020e-01 5.93e-11 3.45e-01  -5.7 3.95e+00  -0.6 8.52e-02 1.85e-02f  1
  72 -7.2585236e-01 7.46e-11 3.56e-01  -5.7 1.52e+00  -0.1 3.25e-04 2.07e-02f  1
  73 -7.2610713e-01 7.34e-11 2.77e-01  -5.7 4.71e-02   0.3 1.89e-01 9.61e-03f  1
  74 -7.2673339e-01 7.25e-11 2.75e-01  -5.7 1.20e-01  -0.2 5.62e-03 7.94e-03f  1
  75 -7.3099405e-01 5.72e-11 4.98e-01  -5.7 3.43e-02   0.2 1.00e+00 1.60e-01f  1
  76 -7.4886470e-01 5.49e-11 3.57e-01  -5.7 1.13e-01  -0.2 1.00e+00 2.06e-01f  1
  77 -7.5061185e-01 9.22e-11 1.79e-01  -5.7 1.01e-02   0.2 5.04e-01 4.98e-01f  1
  78 -7.5090816e-01 8.96e-11 1.95e-01  -5.7 6.97e-02  -0.3 6.49e-01 4.22e-02f  1
  79 -7.5216239e-01 6.26e-11 1.56e-01  -5.7 1.40e-02   0.1 1.98e-01 6.08e-01f  1
iter    objective    inf_pr   inf_du lg(mu)  ||d||  lg(rg) alpha_du alpha_pr  ls
  80 -7.5729663e-01 4.11e-11 1.78e-01  -5.7 1.27e-01  -0.3 7.67e-01 2.91e-01f  1
  81 -7.6236086e-01 2.12e-11 3.81e-02  -5.7 3.20e-02   0.1 9.76e-01 7.75e-01f  1
  82 -8.5001301e-01 6.02e-11 1.06e-01  -5.7 4.60e-01  -0.4 4.95e-01 4.44e-01f  1
  83 -9.4213575e-01 6.54e-11 1.46e-01  -5.7 1.37e-01   0.0 1.00e+00 8.92e-01f  1
  84 -9.9978960e-01 9.22e-11 1.52e+00  -5.7 4.14e+00  -0.4 2.27e-01 1.48e-02f  1
  85 -9.9977691e-01 9.21e-11 5.72e-01  -5.7 6.68e-03    -  6.83e-01 1.90e-03f 10
  86 -9.9977929e-01 1.52e-10 5.24e-01  -5.7 6.82e-05    -  9.25e-02 1.42e-01f  2
  87 -9.9978664e-01 2.01e-10 1.58e-01  -5.7 2.71e-05    -  7.50e-01 9.67e-01h  1
  88 -9.9977836e-01 1.22e-10 1.56e-10  -5.7 1.61e-05    -  1.00e+00 1.00e+00f  1
  89 -1.0000000e+00 9.88e-14 4.60e-07  -8.6 3.26e-05    -  1.00e+00 9.99e-01f  1
iter    objective    inf_pr   inf_du lg(mu)  ||d||  lg(rg) alpha_du alpha_pr  ls
  90 -1.0000001e+00 5.03e-11 1.15e-01  -8.6 1.50e-08    -  9.14e-01 1.00e+00f  1
  91 -1.0000001e+00 1.88e-11 1.11e-15  -8.6 6.17e-09    -  1.00e+00 1.00e+00h  1

Number of Iterations....: 91

                                   (scaled)                 (unscaled)
Objective...............:  -1.0000001189194689e+00   -1.0000001189194689e+00
Dual infeasibility......:   1.1119036748909004e-15    1.1119036748909004e-15
Constraint violation....:   1.8765433651424246e-11    1.8765433651424246e-11
Complementarity.........:   5.0670350856793856e-09    5.0670350856793856e-09
Overall NLP error.......:   5.0670350856793856e-09    5.0670350856793856e-09


Number of objective function evaluations             = 110
Number of objective gradient evaluations             = 92
Number of equality constraint evaluations            = 110
Number of inequality constraint evaluations          = 0
Number of equality constraint Jacobian evaluations   = 1
Number of inequality constraint Jacobian evaluations = 0
Number of Lagrangian Hessian evaluations             = 91
Total CPU secs in IPOPT (w/o function evaluations)   =      0.390
Total CPU secs in NLP function evaluations           =      6.430

EXIT: Optimal Solution Found.
